
        $ From http://www.csplib.org/Problems/prob009/data/helmut.pdf
        $ Problem number 181
        $ Sequence length : 25
        language ESSENCE' 1.0
        letting sizemaster be 556
        letting sizes be sequence(6,8,10,13,19,25,32,37,49,54,58,76,84,91,92,100,107,128,145,156,165,185,195,205,206)
        